SCIP Status        : problem creation / modification
Total Time         :       0.10
  reading          :       0.10
Original Problem   :
  Problem name     : main4.zpl
  Variables        : 9030 (9030 binary, 0 integer, 0 implicit integer, 0 continuous)
  Constraints      : 0 initial, 9330 maximal
  Objective        : minimize, 9030 non-zeros (abs.min = 0.00068, abs.max = 5700)
